p cnf 37 28
d 0.875 0.125
d 0.875 0.125
d 0.875 0.125
d 0.875 0.125
d 0.875 0.125
d 0.875 0.125
d 0.875 0.125
d 0.875 0.125
d 0.875 0.125
d 0.875 0.125
d 0.875 0.125
d 0.875 0.125
d 0.875 0.125
27
-33
30 -27 -0
27 -30 -0
30 -36 -2
36 -30 -2
35 -26 -4
26 -35 -4
30 -29 -6
29 -30 -6
35 -30 -8
30 -35 -8
35 -36 -10
36 -35 -10
33 -36 -12
36 -33 -12
35 -28 -14
28 -35 -14
33 -29 -16
29 -33 -16
35 -31 -18
31 -35 -18
30 -34 -20
34 -30 -20
28 -34 -22
34 -28 -22
28 -32 -24
32 -28 -24